1111100 AB
390 420 450 480 510 550 595 640 685 730 775 820 865 910 955 1000 1045 1075 1105 1135 1170
1111100 BA
420 457 487 517 547 587 635 680 725 770 815 860 905 950 995 1040 1085 1115 1145 1175 1210
0000011 AB
390 430 470 510 550 590 630 670 710 750 790 830 870 910 950 990 1030 1070 1110 1150 1190
0000011 BA
420 460 500 540 580 620 660 700 740 780 820 860 900 940 980 1020 1060 1100 1140 1180 1220
